p edge 38 266
e 1 5
e 1 19
e 1 22
e 1 25
e 1 26
e 1 35
e 1 35
e 2 1
e 2 9
e 2 11
e 2 14
e 2 22
e 2 27
e 2 31
e 3 4
e 3 10
e 3 13
e 3 18
e 3 18
e 3 18
e 3 27
e 4 3
e 4 14
e 4 16
e 4 19
e 4 22
e 4 30
e 4 33
e 5 9
e 5 11
e 5 15
e 5 21
e 5 23
e 5 28
e 5 30
e 6 1
e 6 7
e 6 7
e 6 9
e 6 11
e 6 15
e 6 24
e 7 4
e 7 20
e 7 21
e 7 23
e 7 29
e 7 30
e 7 35
e 8 2
e 8 5
e 8 12
e 8 17
e 8 17
e 8 24
e 8 30
e 9 2
e 9 12
e 9 12
e 9 28
e 9 29
e 9 32
e 9 35
e 10 1
e 10 2
e 10 7
e 10 23
e 10 32
e 10 33
e 10 38
e 11 2
e 11 3
e 11 14
e 11 18
e 11 19
e 11 38
e 11 38
e 12 1
e 12 3
e 12 6
e 12 7
e 12 21
e 12 23
e 12 28
e 13 4
e 13 23
e 13 25
e 13 27
e 13 31
e 13 34
e 13 36
e 14 1
e 14 4
e 14 5
e 14 24
e 14 24
e 14 29
e 14 38
e 15 6
e 15 18
e 15 19
e 15 26
e 15 27
e 15 36
e 15 37
e 16 3
e 16 10
e 16 14
e 16 23
e 16 24
e 16 25
e 16 27
e 17 14
e 17 16
e 17 20
e 17 24
e 17 25
e 17 29
e 17 32
e 18 11
e 18 13
e 18 14
e 18 15
e 18 17
e 18 25
e 18 29
e 19 2
e 19 3
e 19 15
e 19 20
e 19 25
e 19 29
e 19 34
e 20 4
e 20 8
e 20 8
e 20 9
e 20 13
e 20 27
e 20 38
e 21 4
e 21 15
e 21 18
e 21 22
e 21 28
e 21 32
e 21 38
e 22 1
e 22 6
e 22 21
e 22 23
e 22 29
e 22 30
e 22 36
e 23 14
e 23 15
e 23 16
e 23 17
e 23 21
e 23 27
e 23 31
e 24 10
e 24 12
e 24 19
e 24 25
e 24 28
e 24 29
e 24 33
e 25 6
e 25 16
e 25 22
e 25 26
e 25 31
e 25 36
e 25 38
e 26 4
e 26 22
e 26 22
e 26 24
e 26 24
e 26 25
e 26 37
e 27 6
e 27 12
e 27 13
e 27 24
e 27 31
e 27 32
e 27 38
e 28 7
e 28 8
e 28 9
e 28 9
e 28 14
e 28 18
e 28 37
e 29 5
e 29 6
e 29 9
e 29 20
e 29 22
e 29 23
e 29 36
e 30 3
e 30 5
e 30 5
e 30 14
e 30 19
e 30 26
e 30 37
e 31 7
e 31 8
e 31 8
e 31 9
e 31 15
e 31 26
e 31 38
e 32 1
e 32 17
e 32 19
e 32 21
e 32 21
e 32 24
e 32 38
e 33 5
e 33 7
e 33 9
e 33 10
e 33 18
e 33 21
e 33 37
e 34 1
e 34 4
e 34 4
e 34 22
e 34 25
e 34 26
e 34 30
e 35 6
e 35 7
e 35 11
e 35 16
e 35 19
e 35 27
e 35 29
e 36 4
e 36 13
e 36 13
e 36 14
e 36 20
e 36 28
e 36 31
e 37 6
e 37 9
e 37 13
e 37 13
e 37 20
e 37 27
e 37 38
e 38 9
e 38 12
e 38 14
e 38 29
e 38 31
e 38 33
e 38 33
